data;
set K:= K1 K2 K3 K4 K5 K6 K7 K8 K9 K10 K11 K12 K13 K14 K15 ;

set F:= F1 F2 F3 ;

set Q:= Q1 Q2 ;

param T:= 45;
param V: 
	K1  K2  K3  K4  K5  K6  K7  K8  K9  K10 K11 K12 K13 K14 K15 :=
Q1	1   1   1   1   1   1   1   1   1   0   0   0   0   0   0   
Q2	0   0   0   0   0   0   0   0   0   1   1   1   1   1   1   
; # if resorce k is of type q

param TF:= 
K1 6
K2 6
K3 6
K4 6
K5 6
K6 6
K7 6
K8 6
K9 6
K10 12
K11 12
K12 12
K13 12
K14 12
K15 12
; # number of continuous time slots resource can fly

param TR:= 
K1 2
K2 2
K3 2
K4 2
K5 2
K6 2
K7 2
K8 2
K9 2
K10 4
K11 4
K12 4
K13 4
K14 4
K15 4
; #  number of continuous time slots resource k needs to rest between flights

param P:= 
K1 36
K2 36
K3 36
K4 36
K5 36
K6 36
K7 36
K8 36
K9 36
K10 36
K11 36
K12 36
K13 36
K14 36
K15 36
; #  number of continuous time slots a pilot can be present including rest times for resource k 

param N:= 
K1 4
K2 4
K3 4
K4 4
K5 4
K6 4
K7 4
K8 4
K9 4
K10 2
K11 2
K12 2
K13 2
K14 2
K15 2
; # max number of flights resource k can fly in the total time period

param A: 
	K1  K2  K3  K4  K5  K6  K7  K8  K9  K10 K11 K12 K13 K14 K15 :=
1	1   1   1   1   1   1   1   1   1   1   1   1   1   1   1   
2	1   1   1   1   1   1   1   1   1   1   1   1   1   1   1   
3	1   1   1   1   1   1   1   1   1   1   1   1   1   1   1   
4	1   1   1   1   1   1   1   1   1   1   1   1   1   1   1   
5	1   1   1   1   1   1   1   1   1   1   1   1   1   1   1   
6	1   1   1   1   1   1   1   1   1   1   1   1   1   1   1   
7	1   1   1   1   1   1   1   1   1   1   1   1   1   1   1   
8	1   1   1   1   1   1   1   1   1   1   1   1   1   1   1   
9	1   1   1   1   1   1   1   1   1   1   1   1   1   1   1   
10	1   1   1   1   1   1   1   1   1   1   1   1   1   1   1   
11	1   1   1   1   1   1   1   1   1   1   1   1   1   1   1   
12	1   1   1   1   1   1   1   1   1   1   1   1   1   1   1   
13	1   1   1   1   1   1   1   1   1   1   1   1   1   1   1   
14	1   1   1   1   1   1   1   1   1   1   1   1   1   1   1   
15	1   1   1   1   1   1   1   1   1   1   1   1   1   1   1   
16	1   1   1   1   1   1   1   1   1   1   1   1   1   1   1   
17	1   1   1   1   1   1   1   1   1   1   1   1   1   1   1   
18	1   1   1   1   1   1   1   1   1   1   1   1   1   1   1   
19	1   1   1   1   1   1   1   1   1   1   1   1   1   1   1   
20	1   1   1   1   1   1   1   1   1   1   1   1   1   1   1   
21	1   1   1   1   1   1   1   1   1   1   1   1   1   1   1   
22	1   1   1   1   1   1   1   1   1   1   1   1   1   1   1   
23	1   1   1   1   1   1   1   1   1   1   1   1   1   1   1   
24	1   1   1   1   1   1   1   1   1   1   1   1   1   1   1   
25	1   1   1   1   1   1   1   1   1   1   1   1   1   1   1   
26	1   1   1   1   1   1   1   1   1   1   1   1   1   1   1   
27	1   1   1   1   1   1   1   1   1   1   1   1   1   1   1   
28	1   1   1   1   1   1   1   1   1   1   1   1   1   1   1   
29	1   1   1   1   1   1   1   1   1   1   1   1   1   1   1   
30	1   1   1   1   1   1   1   1   1   1   1   1   1   1   1   
31	1   1   1   1   1   1   1   1   1   1   1   1   1   1   1   
32	1   1   1   1   1   1   1   1   1   1   1   1   1   1   1   
33	1   1   1   1   1   1   1   1   1   1   1   1   1   1   1   
34	1   1   1   1   1   1   1   1   1   1   1   1   1   1   1   
35	1   1   1   1   1   1   1   1   1   1   1   1   1   1   1   
36	1   1   1   1   1   1   1   1   1   1   1   1   1   1   1   
37	1   1   1   1   1   1   1   1   1   1   1   1   1   1   1   
38	1   1   1   1   1   1   1   1   1   1   1   1   1   1   1   
39	1   1   1   1   1   1   1   1   1   1   1   1   1   1   1   
40	1   1   1   1   1   1   1   1   1   1   1   1   1   1   1   
41	1   1   1   1   1   1   1   1   1   1   1   1   1   1   1   
42	1   1   1   1   1   1   1   1   1   1   1   1   1   1   1   
43	1   1   1   1   1   1   1   1   1   1   1   1   1   1   1   
44	1   1   1   1   1   1   1   1   1   1   1   1   1   1   1   
45	1   1   1   1   1   1   1   1   1   1   1   1   1   1   1   
; # availability of resorce k in time slot t

param B: 
	F1  F2  F3  :=
Q1	0   0   1   
Q2	0   0   0   
; # if front f requires resources of type q

param U: 
	F1  F2  F3  :=
K1	0   0   0   
K2	0   0   0   
K3	0   0   0   
K4	0   0   0   
K5	0   0   0   
K6	0   0   0   
K7	0   0   0   
K8	0   0   0   
K9	0   0   0   
K10	2   2   2   
K11	2   2   2   
K12	1   1   1   
K13	0   0   0   
K14	2   2   2   
K15	0   0   0   
; # transit time of resource

param C:= 
K1 900
K2 900
K3 900
K4 900
K5 900
K6 1500
K7 1500
K8 4500
K9 4500
K10 5500
K11 5500
K12 5500
K13 5500
K14 5500
K15 5500
; #  water capacity of resource k

param S:= 
F1 8
F2 10
F3 9
; # max number of resources that can fly at front f in the same time slot

param D:= 

[*,*,F1 ]:  K1    K2    K3    K4    K5    K6    K7    K8    K9    K10   K11   K12   K13   K14   K15   :=
1           1.82  1.82  1.82  1.82  1.82  1.82  1.82  1.45  1.45  1.09  1.09  1.09  1.09  1.09  1.09  
2           1.82  1.82  1.82  1.82  1.82  1.82  1.82  1.45  1.45  1.09  1.09  1.09  1.09  1.09  1.09  
3           1.82  1.82  1.82  1.82  1.82  1.82  1.82  1.45  1.45  1.09  1.09  1.09  1.09  1.09  1.09  
4           1.82  1.82  1.82  1.82  1.82  1.82  1.82  1.45  1.45  1.09  1.09  1.09  1.09  1.09  1.09  
5           1.82  1.82  1.82  1.82  1.82  1.82  1.82  1.45  1.45  1.09  1.09  1.09  1.09  1.09  1.09  
6           1.82  1.82  1.82  1.82  1.82  1.82  1.82  1.45  1.45  1.09  1.09  1.09  1.09  1.09  1.09  
7           1.82  1.82  1.82  1.82  1.82  1.82  1.82  1.45  1.45  1.09  1.09  1.09  1.09  1.09  1.09  
8           1.82  1.82  1.82  1.82  1.82  1.82  1.82  1.45  1.45  1.09  1.09  1.09  1.09  1.09  1.09  
9           1.82  1.82  1.82  1.82  1.82  1.82  1.82  1.45  1.45  1.09  1.09  1.09  1.09  1.09  1.09  
10          1.82  1.82  1.82  1.82  1.82  1.82  1.82  1.45  1.45  1.09  1.09  1.09  1.09  1.09  1.09  
11          1.82  1.82  1.82  1.82  1.82  1.82  1.82  1.45  1.45  1.09  1.09  1.09  1.09  1.09  1.09  
12          1.82  1.82  1.82  1.82  1.82  1.82  1.82  1.45  1.45  1.09  1.09  1.09  1.09  1.09  1.09  
13          1.82  1.82  1.82  1.82  1.82  1.82  1.82  1.45  1.45  1.09  1.09  1.09  1.09  1.09  1.09  
14          1.82  1.82  1.82  1.82  1.82  1.82  1.82  1.45  1.45  1.09  1.09  1.09  1.09  1.09  1.09  
15          1.82  1.82  1.82  1.82  1.82  1.82  1.82  1.45  1.45  1.09  1.09  1.09  1.09  1.09  1.09  
16          1.82  1.82  1.82  1.82  1.82  1.82  1.82  1.45  1.45  1.09  1.09  1.09  1.09  1.09  1.09  
17          1.82  1.82  1.82  1.82  1.82  1.82  1.82  1.45  1.45  1.09  1.09  1.09  1.09  1.09  1.09  
18          1.82  1.82  1.82  1.82  1.82  1.82  1.82  1.45  1.45  1.09  1.09  1.09  1.09  1.09  1.09  
19          1.82  1.82  1.82  1.82  1.82  1.82  1.82  1.45  1.45  1.09  1.09  1.09  1.09  1.09  1.09  
20          1.82  1.82  1.82  1.82  1.82  1.82  1.82  1.45  1.45  1.09  1.09  1.09  1.09  1.09  1.09  
21          1.82  1.82  1.82  1.82  1.82  1.82  1.82  1.45  1.45  1.09  1.09  1.09  1.09  1.09  1.09  
22          1.82  1.82  1.82  1.82  1.82  1.82  1.82  1.45  1.45  1.09  1.09  1.09  1.09  1.09  1.09  
23          1.82  1.82  1.82  1.82  1.82  1.82  1.82  1.45  1.45  1.09  1.09  1.09  1.09  1.09  1.09  
24          1.82  1.82  1.82  1.82  1.82  1.82  1.82  1.45  1.45  1.09  1.09  1.09  1.09  1.09  1.09  
25          1.73  1.73  1.73  1.73  1.73  1.73  1.73  1.38  1.38  1.04  1.04  1.04  1.04  1.04  1.04  
26          1.73  1.73  1.73  1.73  1.73  1.73  1.73  1.38  1.38  1.04  1.04  1.04  1.04  1.04  1.04  
27          1.73  1.73  1.73  1.73  1.73  1.73  1.73  1.38  1.38  1.04  1.04  1.04  1.04  1.04  1.04  
28          1.73  1.73  1.73  1.73  1.73  1.73  1.73  1.38  1.38  1.04  1.04  1.04  1.04  1.04  1.04  
29          1.73  1.73  1.73  1.73  1.73  1.73  1.73  1.38  1.38  1.04  1.04  1.04  1.04  1.04  1.04  
30          1.73  1.73  1.73  1.73  1.73  1.73  1.73  1.38  1.38  1.04  1.04  1.04  1.04  1.04  1.04  
31          1.73  1.73  1.73  1.73  1.73  1.73  1.73  1.38  1.38  1.04  1.04  1.04  1.04  1.04  1.04  
32          1.73  1.73  1.73  1.73  1.73  1.73  1.73  1.38  1.38  1.04  1.04  1.04  1.04  1.04  1.04  
33          1.73  1.73  1.73  1.73  1.73  1.73  1.73  1.38  1.38  1.04  1.04  1.04  1.04  1.04  1.04  
34          1.82  1.82  1.82  1.82  1.82  1.82  1.82  1.45  1.45  1.09  1.09  1.09  1.09  1.09  1.09  
35          1.82  1.82  1.82  1.82  1.82  1.82  1.82  1.45  1.45  1.09  1.09  1.09  1.09  1.09  1.09  
36          1.82  1.82  1.82  1.82  1.82  1.82  1.82  1.45  1.45  1.09  1.09  1.09  1.09  1.09  1.09  
37          1.82  1.82  1.82  1.82  1.82  1.82  1.82  1.45  1.45  1.09  1.09  1.09  1.09  1.09  1.09  
38          1.82  1.82  1.82  1.82  1.82  1.82  1.82  1.45  1.45  1.09  1.09  1.09  1.09  1.09  1.09  
39          1.82  1.82  1.82  1.82  1.82  1.82  1.82  1.45  1.45  1.09  1.09  1.09  1.09  1.09  1.09  
40          1.82  1.82  1.82  1.82  1.82  1.82  1.82  1.45  1.45  1.09  1.09  1.09  1.09  1.09  1.09  
41          1.82  1.82  1.82  1.82  1.82  1.82  1.82  1.45  1.45  1.09  1.09  1.09  1.09  1.09  1.09  
42          1.82  1.82  1.82  1.82  1.82  1.82  1.82  1.45  1.45  1.09  1.09  1.09  1.09  1.09  1.09  
43          1.82  1.82  1.82  1.82  1.82  1.82  1.82  1.45  1.45  1.09  1.09  1.09  1.09  1.09  1.09  
44          1.82  1.82  1.82  1.82  1.82  1.82  1.82  1.45  1.45  1.09  1.09  1.09  1.09  1.09  1.09  
45          1.82  1.82  1.82  1.82  1.82  1.82  1.82  1.45  1.45  1.09  1.09  1.09  1.09  1.09  1.09  

[*,*,F2 ]:  K1    K2    K3    K4    K5    K6    K7    K8    K9    K10   K11   K12   K13   K14   K15   :=
1           1.64  1.64  1.64  1.64  1.64  1.64  1.64  1.30  1.30  0.98  0.98  0.98  0.98  0.98  0.98  
2           1.64  1.64  1.64  1.64  1.64  1.64  1.64  1.30  1.30  0.98  0.98  0.98  0.98  0.98  0.98  
3           1.64  1.64  1.64  1.64  1.64  1.64  1.64  1.30  1.30  0.98  0.98  0.98  0.98  0.98  0.98  
4           1.64  1.64  1.64  1.64  1.64  1.64  1.64  1.30  1.30  0.98  0.98  0.98  0.98  0.98  0.98  
5           1.64  1.64  1.64  1.64  1.64  1.64  1.64  1.30  1.30  0.98  0.98  0.98  0.98  0.98  0.98  
6           1.64  1.64  1.64  1.64  1.64  1.64  1.64  1.30  1.30  0.98  0.98  0.98  0.98  0.98  0.98  
7           1.64  1.64  1.64  1.64  1.64  1.64  1.64  1.30  1.30  0.98  0.98  0.98  0.98  0.98  0.98  
8           1.64  1.64  1.64  1.64  1.64  1.64  1.64  1.30  1.30  0.98  0.98  0.98  0.98  0.98  0.98  
9           1.64  1.64  1.64  1.64  1.64  1.64  1.64  1.30  1.30  0.98  0.98  0.98  0.98  0.98  0.98  
10          1.64  1.64  1.64  1.64  1.64  1.64  1.64  1.30  1.30  0.98  0.98  0.98  0.98  0.98  0.98  
11          1.64  1.64  1.64  1.64  1.64  1.64  1.64  1.30  1.30  0.98  0.98  0.98  0.98  0.98  0.98  
12          1.64  1.64  1.64  1.64  1.64  1.64  1.64  1.30  1.30  0.98  0.98  0.98  0.98  0.98  0.98  
13          1.64  1.64  1.64  1.64  1.64  1.64  1.64  1.30  1.30  0.98  0.98  0.98  0.98  0.98  0.98  
14          1.64  1.64  1.64  1.64  1.64  1.64  1.64  1.30  1.30  0.98  0.98  0.98  0.98  0.98  0.98  
15          1.64  1.64  1.64  1.64  1.64  1.64  1.64  1.30  1.30  0.98  0.98  0.98  0.98  0.98  0.98  
16          1.64  1.64  1.64  1.64  1.64  1.64  1.64  1.30  1.30  0.98  0.98  0.98  0.98  0.98  0.98  
17          1.64  1.64  1.64  1.64  1.64  1.64  1.64  1.30  1.30  0.98  0.98  0.98  0.98  0.98  0.98  
18          1.64  1.64  1.64  1.64  1.64  1.64  1.64  1.30  1.30  0.98  0.98  0.98  0.98  0.98  0.98  
19          1.64  1.64  1.64  1.64  1.64  1.64  1.64  1.30  1.30  0.98  0.98  0.98  0.98  0.98  0.98  
20          1.64  1.64  1.64  1.64  1.64  1.64  1.64  1.30  1.30  0.98  0.98  0.98  0.98  0.98  0.98  
21          1.64  1.64  1.64  1.64  1.64  1.64  1.64  1.30  1.30  0.98  0.98  0.98  0.98  0.98  0.98  
22          1.64  1.64  1.64  1.64  1.64  1.64  1.64  1.30  1.30  0.98  0.98  0.98  0.98  0.98  0.98  
23          1.64  1.64  1.64  1.64  1.64  1.64  1.64  1.30  1.30  0.98  0.98  0.98  0.98  0.98  0.98  
24          1.64  1.64  1.64  1.64  1.64  1.64  1.64  1.30  1.30  0.98  0.98  0.98  0.98  0.98  0.98  
25          1.55  1.55  1.55  1.55  1.55  1.55  1.55  1.24  1.24  0.93  0.93  0.93  0.93  0.93  0.93  
26          1.55  1.55  1.55  1.55  1.55  1.55  1.55  1.24  1.24  0.93  0.93  0.93  0.93  0.93  0.93  
27          1.55  1.55  1.55  1.55  1.55  1.55  1.55  1.24  1.24  0.93  0.93  0.93  0.93  0.93  0.93  
28          1.55  1.55  1.55  1.55  1.55  1.55  1.55  1.24  1.24  0.93  0.93  0.93  0.93  0.93  0.93  
29          1.55  1.55  1.55  1.55  1.55  1.55  1.55  1.24  1.24  0.93  0.93  0.93  0.93  0.93  0.93  
30          1.55  1.55  1.55  1.55  1.55  1.55  1.55  1.24  1.24  0.93  0.93  0.93  0.93  0.93  0.93  
31          1.55  1.55  1.55  1.55  1.55  1.55  1.55  1.24  1.24  0.93  0.93  0.93  0.93  0.93  0.93  
32          1.55  1.55  1.55  1.55  1.55  1.55  1.55  1.24  1.24  0.93  0.93  0.93  0.93  0.93  0.93  
33          1.55  1.55  1.55  1.55  1.55  1.55  1.55  1.24  1.24  0.93  0.93  0.93  0.93  0.93  0.93  
34          1.64  1.64  1.64  1.64  1.64  1.64  1.64  1.30  1.30  0.98  0.98  0.98  0.98  0.98  0.98  
35          1.64  1.64  1.64  1.64  1.64  1.64  1.64  1.30  1.30  0.98  0.98  0.98  0.98  0.98  0.98  
36          1.64  1.64  1.64  1.64  1.64  1.64  1.64  1.30  1.30  0.98  0.98  0.98  0.98  0.98  0.98  
37          1.64  1.64  1.64  1.64  1.64  1.64  1.64  1.30  1.30  0.98  0.98  0.98  0.98  0.98  0.98  
38          1.64  1.64  1.64  1.64  1.64  1.64  1.64  1.30  1.30  0.98  0.98  0.98  0.98  0.98  0.98  
39          1.64  1.64  1.64  1.64  1.64  1.64  1.64  1.30  1.30  0.98  0.98  0.98  0.98  0.98  0.98  
40          1.64  1.64  1.64  1.64  1.64  1.64  1.64  1.30  1.30  0.98  0.98  0.98  0.98  0.98  0.98  
41          1.64  1.64  1.64  1.64  1.64  1.64  1.64  1.30  1.30  0.98  0.98  0.98  0.98  0.98  0.98  
42          1.64  1.64  1.64  1.64  1.64  1.64  1.64  1.30  1.30  0.98  0.98  0.98  0.98  0.98  0.98  
43          1.64  1.64  1.64  1.64  1.64  1.64  1.64  1.30  1.30  0.98  0.98  0.98  0.98  0.98  0.98  
44          1.64  1.64  1.64  1.64  1.64  1.64  1.64  1.30  1.30  0.98  0.98  0.98  0.98  0.98  0.98  
45          1.64  1.64  1.64  1.64  1.64  1.64  1.64  1.30  1.30  0.98  0.98  0.98  0.98  0.98  0.98  

[*,*,F3 ]:  K1    K2    K3    K4    K5    K6    K7    K8    K9    K10   K11   K12   K13   K14   K15   :=
1           1.50  1.50  1.50  1.50  1.50  1.50  1.50  1.20  1.20  0.90  0.90  0.90  0.90  0.90  0.90  
2           1.50  1.50  1.50  1.50  1.50  1.50  1.50  1.20  1.20  0.90  0.90  0.90  0.90  0.90  0.90  
3           1.50  1.50  1.50  1.50  1.50  1.50  1.50  1.20  1.20  0.90  0.90  0.90  0.90  0.90  0.90  
4           1.50  1.50  1.50  1.50  1.50  1.50  1.50  1.20  1.20  0.90  0.90  0.90  0.90  0.90  0.90  
5           1.50  1.50  1.50  1.50  1.50  1.50  1.50  1.20  1.20  0.90  0.90  0.90  0.90  0.90  0.90  
6           1.50  1.50  1.50  1.50  1.50  1.50  1.50  1.20  1.20  0.90  0.90  0.90  0.90  0.90  0.90  
7           1.50  1.50  1.50  1.50  1.50  1.50  1.50  1.20  1.20  0.90  0.90  0.90  0.90  0.90  0.90  
8           1.50  1.50  1.50  1.50  1.50  1.50  1.50  1.20  1.20  0.90  0.90  0.90  0.90  0.90  0.90  
9           1.50  1.50  1.50  1.50  1.50  1.50  1.50  1.20  1.20  0.90  0.90  0.90  0.90  0.90  0.90  
10          1.50  1.50  1.50  1.50  1.50  1.50  1.50  1.20  1.20  0.90  0.90  0.90  0.90  0.90  0.90  
11          1.50  1.50  1.50  1.50  1.50  1.50  1.50  1.20  1.20  0.90  0.90  0.90  0.90  0.90  0.90  
12          1.50  1.50  1.50  1.50  1.50  1.50  1.50  1.20  1.20  0.90  0.90  0.90  0.90  0.90  0.90  
13          1.50  1.50  1.50  1.50  1.50  1.50  1.50  1.20  1.20  0.90  0.90  0.90  0.90  0.90  0.90  
14          1.50  1.50  1.50  1.50  1.50  1.50  1.50  1.20  1.20  0.90  0.90  0.90  0.90  0.90  0.90  
15          1.50  1.50  1.50  1.50  1.50  1.50  1.50  1.20  1.20  0.90  0.90  0.90  0.90  0.90  0.90  
16          1.50  1.50  1.50  1.50  1.50  1.50  1.50  1.20  1.20  0.90  0.90  0.90  0.90  0.90  0.90  
17          1.50  1.50  1.50  1.50  1.50  1.50  1.50  1.20  1.20  0.90  0.90  0.90  0.90  0.90  0.90  
18          1.50  1.50  1.50  1.50  1.50  1.50  1.50  1.20  1.20  0.90  0.90  0.90  0.90  0.90  0.90  
19          1.50  1.50  1.50  1.50  1.50  1.50  1.50  1.20  1.20  0.90  0.90  0.90  0.90  0.90  0.90  
20          1.50  1.50  1.50  1.50  1.50  1.50  1.50  1.20  1.20  0.90  0.90  0.90  0.90  0.90  0.90  
21          1.50  1.50  1.50  1.50  1.50  1.50  1.50  1.20  1.20  0.90  0.90  0.90  0.90  0.90  0.90  
22          1.50  1.50  1.50  1.50  1.50  1.50  1.50  1.20  1.20  0.90  0.90  0.90  0.90  0.90  0.90  
23          1.50  1.50  1.50  1.50  1.50  1.50  1.50  1.20  1.20  0.90  0.90  0.90  0.90  0.90  0.90  
24          1.50  1.50  1.50  1.50  1.50  1.50  1.50  1.20  1.20  0.90  0.90  0.90  0.90  0.90  0.90  
25          1.43  1.43  1.43  1.43  1.43  1.43  1.43  1.14  1.14  0.85  0.85  0.85  0.85  0.85  0.85  
26          1.43  1.43  1.43  1.43  1.43  1.43  1.43  1.14  1.14  0.85  0.85  0.85  0.85  0.85  0.85  
27          1.43  1.43  1.43  1.43  1.43  1.43  1.43  1.14  1.14  0.85  0.85  0.85  0.85  0.85  0.85  
28          1.43  1.43  1.43  1.43  1.43  1.43  1.43  1.14  1.14  0.85  0.85  0.85  0.85  0.85  0.85  
29          1.43  1.43  1.43  1.43  1.43  1.43  1.43  1.14  1.14  0.85  0.85  0.85  0.85  0.85  0.85  
30          1.43  1.43  1.43  1.43  1.43  1.43  1.43  1.14  1.14  0.85  0.85  0.85  0.85  0.85  0.85  
31          1.43  1.43  1.43  1.43  1.43  1.43  1.43  1.14  1.14  0.85  0.85  0.85  0.85  0.85  0.85  
32          1.43  1.43  1.43  1.43  1.43  1.43  1.43  1.14  1.14  0.85  0.85  0.85  0.85  0.85  0.85  
33          1.43  1.43  1.43  1.43  1.43  1.43  1.43  1.14  1.14  0.85  0.85  0.85  0.85  0.85  0.85  
34          1.50  1.50  1.50  1.50  1.50  1.50  1.50  1.20  1.20  0.90  0.90  0.90  0.90  0.90  0.90  
35          1.50  1.50  1.50  1.50  1.50  1.50  1.50  1.20  1.20  0.90  0.90  0.90  0.90  0.90  0.90  
36          1.50  1.50  1.50  1.50  1.50  1.50  1.50  1.20  1.20  0.90  0.90  0.90  0.90  0.90  0.90  
37          1.50  1.50  1.50  1.50  1.50  1.50  1.50  1.20  1.20  0.90  0.90  0.90  0.90  0.90  0.90  
38          1.50  1.50  1.50  1.50  1.50  1.50  1.50  1.20  1.20  0.90  0.90  0.90  0.90  0.90  0.90  
39          1.50  1.50  1.50  1.50  1.50  1.50  1.50  1.20  1.20  0.90  0.90  0.90  0.90  0.90  0.90  
40          1.50  1.50  1.50  1.50  1.50  1.50  1.50  1.20  1.20  0.90  0.90  0.90  0.90  0.90  0.90  
41          1.50  1.50  1.50  1.50  1.50  1.50  1.50  1.20  1.20  0.90  0.90  0.90  0.90  0.90  0.90  
42          1.50  1.50  1.50  1.50  1.50  1.50  1.50  1.20  1.20  0.90  0.90  0.90  0.90  0.90  0.90  
43          1.50  1.50  1.50  1.50  1.50  1.50  1.50  1.20  1.20  0.90  0.90  0.90  0.90  0.90  0.90  
44          1.50  1.50  1.50  1.50  1.50  1.50  1.50  1.20  1.20  0.90  0.90  0.90  0.90  0.90  0.90  
45          1.50  1.50  1.50  1.50  1.50  1.50  1.50  1.20  1.20  0.90  0.90  0.90  0.90  0.90  0.90  
; # downloads resource k can do at front f in time t if intermediate time slot

param E:= 

[*,*,F1 ]:  K1    K2    K3    K4    K5    K6    K7    K8    K9    K10   K11   K12   K13   K14   K15   :=
1           0.49  0.04  0.31  0.24  0.24  0.18  0.42  0.30  0.10  0.52  0.01  0.56  0.00  0.44  0.33  
2           0.49  0.04  0.31  0.24  0.24  0.18  0.42  0.30  0.10  0.52  0.01  0.56  0.00  0.44  0.33  
3           0.49  0.04  0.31  0.24  0.24  0.18  0.42  0.30  0.10  0.52  0.01  0.56  0.00  0.44  0.33  
4           0.49  0.04  0.31  0.24  0.24  0.18  0.42  0.30  0.10  0.52  0.01  0.56  0.00  0.44  0.33  
5           0.49  0.04  0.31  0.24  0.24  0.18  0.42  0.30  0.10  0.52  0.01  0.56  0.00  0.44  0.33  
6           0.49  0.04  0.31  0.24  0.24  0.18  0.42  0.30  0.10  0.52  0.01  0.56  0.00  0.44  0.33  
7           0.49  0.04  0.31  0.24  0.24  0.18  0.42  0.30  0.10  0.52  0.01  0.56  0.00  0.44  0.33  
8           0.49  0.04  0.31  0.24  0.24  0.18  0.42  0.30  0.10  0.52  0.01  0.56  0.00  0.44  0.33  
9           0.49  0.04  0.31  0.24  0.24  0.18  0.42  0.30  0.10  0.52  0.01  0.56  0.00  0.44  0.33  
10          0.49  0.04  0.31  0.24  0.24  0.18  0.42  0.30  0.10  0.52  0.01  0.56  0.00  0.44  0.33  
11          0.49  0.04  0.31  0.24  0.24  0.18  0.42  0.30  0.10  0.52  0.01  0.56  0.00  0.44  0.33  
12          0.49  0.04  0.31  0.24  0.24  0.18  0.42  0.30  0.10  0.52  0.01  0.56  0.00  0.44  0.33  
13          0.49  0.04  0.31  0.24  0.24  0.18  0.42  0.30  0.10  0.52  0.01  0.56  0.00  0.44  0.33  
14          0.49  0.04  0.31  0.24  0.24  0.18  0.42  0.30  0.10  0.52  0.01  0.56  0.00  0.44  0.33  
15          0.49  0.04  0.31  0.24  0.24  0.18  0.42  0.30  0.10  0.52  0.01  0.56  0.00  0.44  0.33  
16          0.49  0.04  0.31  0.24  0.24  0.18  0.42  0.30  0.10  0.52  0.01  0.56  0.00  0.44  0.33  
17          0.49  0.04  0.31  0.24  0.24  0.18  0.42  0.30  0.10  0.52  0.01  0.56  0.00  0.44  0.33  
18          0.49  0.04  0.31  0.24  0.24  0.18  0.42  0.30  0.10  0.52  0.01  0.56  0.00  0.44  0.33  
19          0.49  0.04  0.31  0.24  0.24  0.18  0.42  0.30  0.10  0.52  0.01  0.56  0.00  0.44  0.33  
20          0.49  0.04  0.31  0.24  0.24  0.18  0.42  0.30  0.10  0.52  0.01  0.56  0.00  0.44  0.33  
21          0.49  0.04  0.31  0.24  0.24  0.18  0.42  0.30  0.10  0.52  0.01  0.56  0.00  0.44  0.33  
22          0.49  0.04  0.31  0.24  0.24  0.18  0.42  0.30  0.10  0.52  0.01  0.56  0.00  0.44  0.33  
23          0.49  0.04  0.31  0.24  0.24  0.18  0.42  0.30  0.10  0.52  0.01  0.56  0.00  0.44  0.33  
24          0.49  0.04  0.31  0.24  0.24  0.18  0.42  0.30  0.10  0.52  0.01  0.56  0.00  0.44  0.33  
25          0.47  0.03  0.29  0.22  0.22  0.17  0.40  0.29  0.10  0.50  0.01  0.53  0.00  0.41  0.31  
26          0.47  0.03  0.29  0.22  0.22  0.17  0.40  0.29  0.10  0.50  0.01  0.53  0.00  0.41  0.31  
27          0.47  0.03  0.29  0.22  0.22  0.17  0.40  0.29  0.10  0.50  0.01  0.53  0.00  0.41  0.31  
28          0.47  0.03  0.29  0.22  0.22  0.17  0.40  0.29  0.10  0.50  0.01  0.53  0.00  0.41  0.31  
29          0.47  0.03  0.29  0.22  0.22  0.17  0.40  0.29  0.10  0.50  0.01  0.53  0.00  0.41  0.31  
30          0.47  0.03  0.29  0.22  0.22  0.17  0.40  0.29  0.10  0.50  0.01  0.53  0.00  0.41  0.31  
31          0.47  0.03  0.29  0.22  0.22  0.17  0.40  0.29  0.10  0.50  0.01  0.53  0.00  0.41  0.31  
32          0.47  0.03  0.29  0.22  0.22  0.17  0.40  0.29  0.10  0.50  0.01  0.53  0.00  0.41  0.31  
33          0.47  0.03  0.29  0.22  0.22  0.17  0.40  0.29  0.10  0.50  0.01  0.53  0.00  0.41  0.31  
34          0.49  0.04  0.31  0.24  0.24  0.18  0.42  0.30  0.10  0.52  0.01  0.56  0.00  0.44  0.33  
35          0.49  0.04  0.31  0.24  0.24  0.18  0.42  0.30  0.10  0.52  0.01  0.56  0.00  0.44  0.33  
36          0.49  0.04  0.31  0.24  0.24  0.18  0.42  0.30  0.10  0.52  0.01  0.56  0.00  0.44  0.33  
37          0.49  0.04  0.31  0.24  0.24  0.18  0.42  0.30  0.10  0.52  0.01  0.56  0.00  0.44  0.33  
38          0.49  0.04  0.31  0.24  0.24  0.18  0.42  0.30  0.10  0.52  0.01  0.56  0.00  0.44  0.33  
39          0.49  0.04  0.31  0.24  0.24  0.18  0.42  0.30  0.10  0.52  0.01  0.56  0.00  0.44  0.33  
40          0.49  0.04  0.31  0.24  0.24  0.18  0.42  0.30  0.10  0.52  0.01  0.56  0.00  0.44  0.33  
41          0.49  0.04  0.31  0.24  0.24  0.18  0.42  0.30  0.10  0.52  0.01  0.56  0.00  0.44  0.33  
42          0.49  0.04  0.31  0.24  0.24  0.18  0.42  0.30  0.10  0.52  0.01  0.56  0.00  0.44  0.33  
43          0.49  0.04  0.31  0.24  0.24  0.18  0.42  0.30  0.10  0.52  0.01  0.56  0.00  0.44  0.33  
44          0.49  0.04  0.31  0.24  0.24  0.18  0.42  0.30  0.10  0.52  0.01  0.56  0.00  0.44  0.33  
45          0.49  0.04  0.31  0.24  0.24  0.18  0.42  0.30  0.10  0.52  0.01  0.56  0.00  0.44  0.33  

[*,*,F2 ]:  K1    K2    K3    K4    K5    K6    K7    K8    K9    K10   K11   K12   K13   K14   K15   :=
1           0.46  0.18  0.31  0.21  0.15  0.15  0.33  0.31  0.09  0.50  0.01  0.47  0.04  0.40  0.28  
2           0.46  0.18  0.31  0.21  0.15  0.15  0.33  0.31  0.09  0.50  0.01  0.47  0.04  0.40  0.28  
3           0.46  0.18  0.31  0.21  0.15  0.15  0.33  0.31  0.09  0.50  0.01  0.47  0.04  0.40  0.28  
4           0.46  0.18  0.31  0.21  0.15  0.15  0.33  0.31  0.09  0.50  0.01  0.47  0.04  0.40  0.28  
5           0.46  0.18  0.31  0.21  0.15  0.15  0.33  0.31  0.09  0.50  0.01  0.47  0.04  0.40  0.28  
6           0.46  0.18  0.31  0.21  0.15  0.15  0.33  0.31  0.09  0.50  0.01  0.47  0.04  0.40  0.28  
7           0.46  0.18  0.31  0.21  0.15  0.15  0.33  0.31  0.09  0.50  0.01  0.47  0.04  0.40  0.28  
8           0.46  0.18  0.31  0.21  0.15  0.15  0.33  0.31  0.09  0.50  0.01  0.47  0.04  0.40  0.28  
9           0.46  0.18  0.31  0.21  0.15  0.15  0.33  0.31  0.09  0.50  0.01  0.47  0.04  0.40  0.28  
10          0.46  0.18  0.31  0.21  0.15  0.15  0.33  0.31  0.09  0.50  0.01  0.47  0.04  0.40  0.28  
11          0.46  0.18  0.31  0.21  0.15  0.15  0.33  0.31  0.09  0.50  0.01  0.47  0.04  0.40  0.28  
12          0.46  0.18  0.31  0.21  0.15  0.15  0.33  0.31  0.09  0.50  0.01  0.47  0.04  0.40  0.28  
13          0.46  0.18  0.31  0.21  0.15  0.15  0.33  0.31  0.09  0.50  0.01  0.47  0.04  0.40  0.28  
14          0.46  0.18  0.31  0.21  0.15  0.15  0.33  0.31  0.09  0.50  0.01  0.47  0.04  0.40  0.28  
15          0.46  0.18  0.31  0.21  0.15  0.15  0.33  0.31  0.09  0.50  0.01  0.47  0.04  0.40  0.28  
16          0.46  0.18  0.31  0.21  0.15  0.15  0.33  0.31  0.09  0.50  0.01  0.47  0.04  0.40  0.28  
17          0.46  0.18  0.31  0.21  0.15  0.15  0.33  0.31  0.09  0.50  0.01  0.47  0.04  0.40  0.28  
18          0.46  0.18  0.31  0.21  0.15  0.15  0.33  0.31  0.09  0.50  0.01  0.47  0.04  0.40  0.28  
19          0.46  0.18  0.31  0.21  0.15  0.15  0.33  0.31  0.09  0.50  0.01  0.47  0.04  0.40  0.28  
20          0.46  0.18  0.31  0.21  0.15  0.15  0.33  0.31  0.09  0.50  0.01  0.47  0.04  0.40  0.28  
21          0.46  0.18  0.31  0.21  0.15  0.15  0.33  0.31  0.09  0.50  0.01  0.47  0.04  0.40  0.28  
22          0.46  0.18  0.31  0.21  0.15  0.15  0.33  0.31  0.09  0.50  0.01  0.47  0.04  0.40  0.28  
23          0.46  0.18  0.31  0.21  0.15  0.15  0.33  0.31  0.09  0.50  0.01  0.47  0.04  0.40  0.28  
24          0.46  0.18  0.31  0.21  0.15  0.15  0.33  0.31  0.09  0.50  0.01  0.47  0.04  0.40  0.28  
25          0.44  0.17  0.30  0.20  0.14  0.14  0.31  0.30  0.09  0.47  0.01  0.45  0.04  0.38  0.27  
26          0.44  0.17  0.30  0.20  0.14  0.14  0.31  0.30  0.09  0.47  0.01  0.45  0.04  0.38  0.27  
27          0.44  0.17  0.30  0.20  0.14  0.14  0.31  0.30  0.09  0.47  0.01  0.45  0.04  0.38  0.27  
28          0.44  0.17  0.30  0.20  0.14  0.14  0.31  0.30  0.09  0.47  0.01  0.45  0.04  0.38  0.27  
29          0.44  0.17  0.30  0.20  0.14  0.14  0.31  0.30  0.09  0.47  0.01  0.45  0.04  0.38  0.27  
30          0.44  0.17  0.30  0.20  0.14  0.14  0.31  0.30  0.09  0.47  0.01  0.45  0.04  0.38  0.27  
31          0.44  0.17  0.30  0.20  0.14  0.14  0.31  0.30  0.09  0.47  0.01  0.45  0.04  0.38  0.27  
32          0.44  0.17  0.30  0.20  0.14  0.14  0.31  0.30  0.09  0.47  0.01  0.45  0.04  0.38  0.27  
33          0.44  0.17  0.30  0.20  0.14  0.14  0.31  0.30  0.09  0.47  0.01  0.45  0.04  0.38  0.27  
34          0.46  0.18  0.31  0.21  0.15  0.15  0.33  0.31  0.09  0.50  0.01  0.47  0.04  0.40  0.28  
35          0.46  0.18  0.31  0.21  0.15  0.15  0.33  0.31  0.09  0.50  0.01  0.47  0.04  0.40  0.28  
36          0.46  0.18  0.31  0.21  0.15  0.15  0.33  0.31  0.09  0.50  0.01  0.47  0.04  0.40  0.28  
37          0.46  0.18  0.31  0.21  0.15  0.15  0.33  0.31  0.09  0.50  0.01  0.47  0.04  0.40  0.28  
38          0.46  0.18  0.31  0.21  0.15  0.15  0.33  0.31  0.09  0.50  0.01  0.47  0.04  0.40  0.28  
39          0.46  0.18  0.31  0.21  0.15  0.15  0.33  0.31  0.09  0.50  0.01  0.47  0.04  0.40  0.28  
40          0.46  0.18  0.31  0.21  0.15  0.15  0.33  0.31  0.09  0.50  0.01  0.47  0.04  0.40  0.28  
41          0.46  0.18  0.31  0.21  0.15  0.15  0.33  0.31  0.09  0.50  0.01  0.47  0.04  0.40  0.28  
42          0.46  0.18  0.31  0.21  0.15  0.15  0.33  0.31  0.09  0.50  0.01  0.47  0.04  0.40  0.28  
43          0.46  0.18  0.31  0.21  0.15  0.15  0.33  0.31  0.09  0.50  0.01  0.47  0.04  0.40  0.28  
44          0.46  0.18  0.31  0.21  0.15  0.15  0.33  0.31  0.09  0.50  0.01  0.47  0.04  0.40  0.28  
45          0.46  0.18  0.31  0.21  0.15  0.15  0.33  0.31  0.09  0.50  0.01  0.47  0.04  0.40  0.28  

[*,*,F3 ]:  K1    K2    K3    K4    K5    K6    K7    K8    K9    K10   K11   K12   K13   K14   K15   :=
1           0.42  0.03  0.39  0.21  0.11  0.18  0.27  0.23  0.04  0.45  0.01  0.40  0.03  0.40  0.22  
2           0.42  0.03  0.39  0.21  0.11  0.18  0.27  0.23  0.04  0.45  0.01  0.40  0.03  0.40  0.22  
3           0.42  0.03  0.39  0.21  0.11  0.18  0.27  0.23  0.04  0.45  0.01  0.40  0.03  0.40  0.22  
4           0.42  0.03  0.39  0.21  0.11  0.18  0.27  0.23  0.04  0.45  0.01  0.40  0.03  0.40  0.22  
5           0.42  0.03  0.39  0.21  0.11  0.18  0.27  0.23  0.04  0.45  0.01  0.40  0.03  0.40  0.22  
6           0.42  0.03  0.39  0.21  0.11  0.18  0.27  0.23  0.04  0.45  0.01  0.40  0.03  0.40  0.22  
7           0.42  0.03  0.39  0.21  0.11  0.18  0.27  0.23  0.04  0.45  0.01  0.40  0.03  0.40  0.22  
8           0.42  0.03  0.39  0.21  0.11  0.18  0.27  0.23  0.04  0.45  0.01  0.40  0.03  0.40  0.22  
9           0.42  0.03  0.39  0.21  0.11  0.18  0.27  0.23  0.04  0.45  0.01  0.40  0.03  0.40  0.22  
10          0.42  0.03  0.39  0.21  0.11  0.18  0.27  0.23  0.04  0.45  0.01  0.40  0.03  0.40  0.22  
11          0.42  0.03  0.39  0.21  0.11  0.18  0.27  0.23  0.04  0.45  0.01  0.40  0.03  0.40  0.22  
12          0.42  0.03  0.39  0.21  0.11  0.18  0.27  0.23  0.04  0.45  0.01  0.40  0.03  0.40  0.22  
13          0.42  0.03  0.39  0.21  0.11  0.18  0.27  0.23  0.04  0.45  0.01  0.40  0.03  0.40  0.22  
14          0.42  0.03  0.39  0.21  0.11  0.18  0.27  0.23  0.04  0.45  0.01  0.40  0.03  0.40  0.22  
15          0.42  0.03  0.39  0.21  0.11  0.18  0.27  0.23  0.04  0.45  0.01  0.40  0.03  0.40  0.22  
16          0.42  0.03  0.39  0.21  0.11  0.18  0.27  0.23  0.04  0.45  0.01  0.40  0.03  0.40  0.22  
17          0.42  0.03  0.39  0.21  0.11  0.18  0.27  0.23  0.04  0.45  0.01  0.40  0.03  0.40  0.22  
18          0.42  0.03  0.39  0.21  0.11  0.18  0.27  0.23  0.04  0.45  0.01  0.40  0.03  0.40  0.22  
19          0.42  0.03  0.39  0.21  0.11  0.18  0.27  0.23  0.04  0.45  0.01  0.40  0.03  0.40  0.22  
20          0.42  0.03  0.39  0.21  0.11  0.18  0.27  0.23  0.04  0.45  0.01  0.40  0.03  0.40  0.22  
21          0.42  0.03  0.39  0.21  0.11  0.18  0.27  0.23  0.04  0.45  0.01  0.40  0.03  0.40  0.22  
22          0.42  0.03  0.39  0.21  0.11  0.18  0.27  0.23  0.04  0.45  0.01  0.40  0.03  0.40  0.22  
23          0.42  0.03  0.39  0.21  0.11  0.18  0.27  0.23  0.04  0.45  0.01  0.40  0.03  0.40  0.22  
24          0.42  0.03  0.39  0.21  0.11  0.18  0.27  0.23  0.04  0.45  0.01  0.40  0.03  0.40  0.22  
25          0.40  0.03  0.37  0.20  0.10  0.17  0.26  0.22  0.03  0.43  0.01  0.38  0.03  0.38  0.21  
26          0.40  0.03  0.37  0.20  0.10  0.17  0.26  0.22  0.03  0.43  0.01  0.38  0.03  0.38  0.21  
27          0.40  0.03  0.37  0.20  0.10  0.17  0.26  0.22  0.03  0.43  0.01  0.38  0.03  0.38  0.21  
28          0.40  0.03  0.37  0.20  0.10  0.17  0.26  0.22  0.03  0.43  0.01  0.38  0.03  0.38  0.21  
29          0.40  0.03  0.37  0.20  0.10  0.17  0.26  0.22  0.03  0.43  0.01  0.38  0.03  0.38  0.21  
30          0.40  0.03  0.37  0.20  0.10  0.17  0.26  0.22  0.03  0.43  0.01  0.38  0.03  0.38  0.21  
31          0.40  0.03  0.37  0.20  0.10  0.17  0.26  0.22  0.03  0.43  0.01  0.38  0.03  0.38  0.21  
32          0.40  0.03  0.37  0.20  0.10  0.17  0.26  0.22  0.03  0.43  0.01  0.38  0.03  0.38  0.21  
33          0.40  0.03  0.37  0.20  0.10  0.17  0.26  0.22  0.03  0.43  0.01  0.38  0.03  0.38  0.21  
34          0.42  0.03  0.39  0.21  0.11  0.18  0.27  0.23  0.04  0.45  0.01  0.40  0.03  0.40  0.22  
35          0.42  0.03  0.39  0.21  0.11  0.18  0.27  0.23  0.04  0.45  0.01  0.40  0.03  0.40  0.22  
36          0.42  0.03  0.39  0.21  0.11  0.18  0.27  0.23  0.04  0.45  0.01  0.40  0.03  0.40  0.22  
37          0.42  0.03  0.39  0.21  0.11  0.18  0.27  0.23  0.04  0.45  0.01  0.40  0.03  0.40  0.22  
38          0.42  0.03  0.39  0.21  0.11  0.18  0.27  0.23  0.04  0.45  0.01  0.40  0.03  0.40  0.22  
39          0.42  0.03  0.39  0.21  0.11  0.18  0.27  0.23  0.04  0.45  0.01  0.40  0.03  0.40  0.22  
40          0.42  0.03  0.39  0.21  0.11  0.18  0.27  0.23  0.04  0.45  0.01  0.40  0.03  0.40  0.22  
41          0.42  0.03  0.39  0.21  0.11  0.18  0.27  0.23  0.04  0.45  0.01  0.40  0.03  0.40  0.22  
42          0.42  0.03  0.39  0.21  0.11  0.18  0.27  0.23  0.04  0.45  0.01  0.40  0.03  0.40  0.22  
43          0.42  0.03  0.39  0.21  0.11  0.18  0.27  0.23  0.04  0.45  0.01  0.40  0.03  0.40  0.22  
44          0.42  0.03  0.39  0.21  0.11  0.18  0.27  0.23  0.04  0.45  0.01  0.40  0.03  0.40  0.22  
45          0.42  0.03  0.39  0.21  0.11  0.18  0.27  0.23  0.04  0.45  0.01  0.40  0.03  0.40  0.22  
; # downloads resource k can do at front f in time t if starting or ending flight

param W: 
	F1        F2        F3        :=
1	916.72    458.36    458.36    
2	3666.88   1833.44   1833.44   
3	3666.88   1833.44   1833.44   
4	3666.88   1833.44   1833.44   
5	3666.88   1833.44   1833.44   
6	3666.88   1833.44   1833.44   
7	3666.88   1833.44   1833.44   
8	3666.88   1833.44   1833.44   
9	3666.88   1833.44   1833.44   
10	3666.88   1833.44   1833.44   
11	3666.88   1833.44   1833.44   
12	3666.88   1833.44   1833.44   
13	3666.88   1833.44   1833.44   
14	3666.88   1833.44   1833.44   
15	3666.88   1833.44   1833.44   
16	3666.88   1833.44   1833.44   
17	3666.88   1833.44   1833.44   
18	3666.88   1833.44   1833.44   
19	1629.73   814.86    814.86    
20	1629.73   814.86    814.86    
21	1629.73   814.86    814.86    
22	1629.73   814.86    814.86    
23	1629.73   814.86    814.86    
24	1629.73   814.86    814.86    
25	1629.73   814.86    814.86    
26	1629.73   814.86    814.86    
27	1629.73   814.86    814.86    
28	1629.73   814.86    814.86    
29	1629.73   814.86    814.86    
30	1629.73   814.86    814.86    
31	1629.73   814.86    814.86    
32	1629.73   814.86    814.86    
33	1629.73   814.86    814.86    
34	1629.73   814.86    814.86    
35	1629.73   814.86    814.86    
36	1629.73   814.86    814.86    
37	1629.73   814.86    814.86    
38	1629.73   814.86    814.86    
39	1629.73   814.86    814.86    
40	1629.73   814.86    814.86    
41	1629.73   814.86    814.86    
42	1629.73   814.86    814.86    
43	1629.73   814.86    814.86    
44	1629.73   814.86    814.86    
45	407.43    203.72    203.72    
; # water needed at front f in time slot t

param M := 100000000; 

param a1:= 10000000;

param a2:= 100;

param a3:= 0.0001;
